
Gurobi 9.5.0 (win64) logging started Mon Jun  6 20:02:01 2022

Set parameter LogFile to value "../results/logs/log_soc-dolphins_3_1_2022_06_06_20_02.log"
Set parameter LazyConstraints to value 1
Gurobi Optimizer version 9.5.0 build v9.5.0rc5 (win64)
Thread count: 6 physical cores, 12 logical processors, using up to 12 threads
Optimize a model with 2745 rows, 135 columns and 8580 nonzeros
Model fingerprint: 0xdebd6719
Variable types: 0 continuous, 135 integer (135 binary)
Coefficient statistics:
  Matrix range     [1e+00, 3e+00]
  Objective range  [1e+00, 1e+00]
  Bounds range     [1e+00, 1e+00]
  RHS range        [1e+00, 1e+00]
Found heuristic solution: objective -0.0000000
Presolve removed 2617 rows and 10 columns
Presolve time: 0.02s
Presolved: 128 rows, 125 columns, 1820 nonzeros
Variable types: 0 continuous, 125 integer (125 binary)

Root relaxation: objective 2.550000e+01, 35 iterations, 0.00 seconds (0.00 work units)

    Nodes    |    Current Node    |     Objective Bounds      |     Work
 Expl Unexpl |  Obj  Depth IntInf | Incumbent    BestBd   Gap | It/Node Time

     0     0   25.50000    0    5   -0.00000   25.50000      -     -    0s
H    0     0                      21.0000000   25.50000  21.4%     -    0s
     0     0   24.00000    0   10   21.00000   24.00000  14.3%     -    0s
H    0     0                      23.0000000   24.00000  4.35%     -    0s
     0     0   24.00000    0   10   23.00000   24.00000  4.35%     -    0s

Cutting planes:
  Gomory: 2
  Cover: 3
  MIR: 1
  GUB cover: 1

Explored 1 nodes (64 simplex iterations) in 0.03 seconds (0.02 work units)
Thread count was 12 (of 12 available processors)

Solution count 3: 23 21 -0 

Optimal solution found (tolerance 0.00e+00)
Best objective 2.300000000000e+01, best bound 2.300000000000e+01, gap 0.0000%

User-callback calls 247, time in user-callback 0.00 sec

Gurobi 9.5.0 (win64) logging started Mon Jun  6 20:02:04 2022

Set parameter LogFile to value "../results/logs/log_soc-dolphins_3_1_2022_06_06_20_02.log"
Set parameter LazyConstraints to value 1
Gurobi Optimizer version 9.5.0 build v9.5.0rc5 (win64)
Thread count: 6 physical cores, 12 logical processors, using up to 12 threads
Optimize a model with 2745 rows, 135 columns and 8580 nonzeros
Model fingerprint: 0x47c40011
Variable types: 0 continuous, 135 integer (135 binary)
Coefficient statistics:
  Matrix range     [1e+00, 3e+00]
  Objective range  [1e+00, 1e+00]
  Bounds range     [1e+00, 1e+00]
  RHS range        [1e+00, 1e+00]
Found heuristic solution: objective -0.0000000
Presolve removed 2615 rows and 11 columns
Presolve time: 0.02s
Presolved: 130 rows, 124 columns, 2107 nonzeros
Variable types: 0 continuous, 124 integer (124 binary)

Root relaxation: objective 2.550000e+01, 46 iterations, 0.00 seconds (0.00 work units)

    Nodes    |    Current Node    |     Objective Bounds      |     Work
 Expl Unexpl |  Obj  Depth IntInf | Incumbent    BestBd   Gap | It/Node Time

     0     0   25.50000    0    5   -0.00000   25.50000      -     -    0s
H    0     0                      21.0000000   25.50000  21.4%     -    0s
     0     0   24.00000    0   10   21.00000   24.00000  14.3%     -    0s
     0     0   23.69231    0   23   21.00000   23.69231  12.8%     -    0s
     0     0   23.66667    0    1   21.00000   23.66667  12.7%     -    0s
H    0     0                      23.0000000   23.66667  2.90%     -    0s
     0     0   23.66667    0    1   23.00000   23.66667  2.90%     -    0s

Explored 1 nodes (93 simplex iterations) in 0.04 seconds (0.02 work units)
Thread count was 12 (of 12 available processors)

Solution count 3: 23 21 -0 

Optimal solution found (tolerance 0.00e+00)
Best objective 2.300000000000e+01, best bound 2.300000000000e+01, gap 0.0000%

User-callback calls 253, time in user-callback 0.00 sec

Gurobi 9.5.0 (win64) logging started Mon Jun  6 20:02:06 2022

Set parameter LogFile to value "../results/logs/log_soc-dolphins_3_1_2022_06_06_20_02.log"
Set parameter LazyConstraints to value 1
Gurobi Optimizer version 9.5.0 build v9.5.0rc5 (win64)
Thread count: 6 physical cores, 12 logical processors, using up to 12 threads
Optimize a model with 2745 rows, 135 columns and 8580 nonzeros
Model fingerprint: 0x4cb943a4
Variable types: 0 continuous, 135 integer (135 binary)
Coefficient statistics:
  Matrix range     [1e+00, 3e+00]
  Objective range  [1e+00, 1e+00]
  Bounds range     [1e+00, 1e+00]
  RHS range        [1e+00, 1e+00]
Found heuristic solution: objective -0.0000000
Presolve removed 2618 rows and 10 columns
Presolve time: 0.02s
Presolved: 127 rows, 125 columns, 1790 nonzeros
Variable types: 0 continuous, 125 integer (125 binary)

Root relaxation: objective 2.550000e+01, 38 iterations, 0.00 seconds (0.00 work units)

    Nodes    |    Current Node    |     Objective Bounds      |     Work
 Expl Unexpl |  Obj  Depth IntInf | Incumbent    BestBd   Gap | It/Node Time

     0     0   25.50000    0    5   -0.00000   25.50000      -     -    0s
H    0     0                      21.0000000   25.50000  21.4%     -    0s
     0     0   24.00000    0   10   21.00000   24.00000  14.3%     -    0s
     0     0   23.50000    0    9   21.00000   23.50000  11.9%     -    0s
     0     0     cutoff    0        21.00000   21.00000  0.00%     -    0s

Explored 1 nodes (66 simplex iterations) in 0.05 seconds (0.02 work units)
Thread count was 12 (of 12 available processors)

Solution count 2: 21 -0 

Optimal solution found (tolerance 0.00e+00)
Best objective 2.100000000000e+01, best bound 2.100000000000e+01, gap 0.0000%

User-callback calls 253, time in user-callback 0.01 sec

Gurobi 9.5.0 (win64) logging started Mon Jun  6 20:02:27 2022

Set parameter LogFile to value "../results/logs/log_soc-dolphins_3_1_2022_06_06_20_02.log"
Set parameter LazyConstraints to value 1
Gurobi Optimizer version 9.5.0 build v9.5.0rc5 (win64)
Thread count: 6 physical cores, 12 logical processors, using up to 12 threads
Optimize a model with 2745 rows, 135 columns and 8580 nonzeros
Model fingerprint: 0x1318d07e
Variable types: 0 continuous, 135 integer (135 binary)
Coefficient statistics:
  Matrix range     [1e+00, 3e+00]
  Objective range  [1e+00, 1e+00]
  Bounds range     [1e+00, 1e+00]
  RHS range        [1e+00, 1e+00]
Found heuristic solution: objective -0.0000000
Presolve removed 2617 rows and 10 columns
Presolve time: 0.02s
Presolved: 128 rows, 125 columns, 1820 nonzeros
Variable types: 0 continuous, 125 integer (125 binary)

Root relaxation: objective 2.550000e+01, 34 iterations, 0.00 seconds (0.00 work units)

    Nodes    |    Current Node    |     Objective Bounds      |     Work
 Expl Unexpl |  Obj  Depth IntInf | Incumbent    BestBd   Gap | It/Node Time

     0     0   25.50000    0    5   -0.00000   25.50000      -     -    0s
H    0     0                      21.0000000   25.50000  21.4%     -    0s
     0     0   24.00000    0   10   21.00000   24.00000  14.3%     -    0s
H    0     0                      23.0000000   24.00000  4.35%     -    0s
     0     0   24.00000    0   10   23.00000   24.00000  4.35%     -    0s

Cutting planes:
  Gomory: 2
  Cover: 3
  MIR: 1
  GUB cover: 1

Explored 1 nodes (53 simplex iterations) in 0.03 seconds (0.02 work units)
Thread count was 12 (of 12 available processors)

Solution count 3: 23 21 -0 

Optimal solution found (tolerance 0.00e+00)
Best objective 2.300000000000e+01, best bound 2.300000000000e+01, gap 0.0000%

User-callback calls 249, time in user-callback 0.00 sec

Gurobi 9.5.0 (win64) logging started Mon Jun  6 20:02:29 2022

Set parameter LogFile to value "../results/logs/log_soc-dolphins_3_1_2022_06_06_20_02.log"
Set parameter LazyConstraints to value 1
Gurobi Optimizer version 9.5.0 build v9.5.0rc5 (win64)
Thread count: 6 physical cores, 12 logical processors, using up to 12 threads
Optimize a model with 2745 rows, 135 columns and 8580 nonzeros
Model fingerprint: 0x9ac544fd
Variable types: 0 continuous, 135 integer (135 binary)
Coefficient statistics:
  Matrix range     [1e+00, 3e+00]
  Objective range  [1e+00, 1e+00]
  Bounds range     [1e+00, 1e+00]
  RHS range        [1e+00, 1e+00]
Found heuristic solution: objective -0.0000000
Presolve removed 2618 rows and 10 columns
Presolve time: 0.02s
Presolved: 127 rows, 125 columns, 1790 nonzeros
Variable types: 0 continuous, 125 integer (125 binary)

Root relaxation: objective 2.550000e+01, 41 iterations, 0.00 seconds (0.00 work units)

    Nodes    |    Current Node    |     Objective Bounds      |     Work
 Expl Unexpl |  Obj  Depth IntInf | Incumbent    BestBd   Gap | It/Node Time

     0     0   25.50000    0    5   -0.00000   25.50000      -     -    0s
H    0     0                      21.0000000   25.50000  21.4%     -    0s
     0     0   24.00000    0   10   21.00000   24.00000  14.3%     -    0s
H    0     0                      22.0000000   24.00000  9.09%     -    0s
H    0     0                      23.0000000   24.00000  4.35%     -    0s
     0     0   24.00000    0   10   23.00000   24.00000  4.35%     -    0s

Cutting planes:
  Gomory: 3
  Cover: 3
  MIR: 1
  GUB cover: 1

Explored 1 nodes (61 simplex iterations) in 0.03 seconds (0.02 work units)
Thread count was 12 (of 12 available processors)

Solution count 4: 23 22 21 -0 

Optimal solution found (tolerance 0.00e+00)
Best objective 2.300000000000e+01, best bound 2.300000000000e+01, gap 0.0000%

User-callback calls 250, time in user-callback 0.00 sec

Gurobi 9.5.0 (win64) logging started Mon Jun  6 20:02:31 2022

Set parameter LogFile to value "../results/logs/log_soc-dolphins_3_1_2022_06_06_20_02.log"
Set parameter LazyConstraints to value 1
Gurobi Optimizer version 9.5.0 build v9.5.0rc5 (win64)
Thread count: 6 physical cores, 12 logical processors, using up to 12 threads
Optimize a model with 2745 rows, 135 columns and 8580 nonzeros
Model fingerprint: 0x8fb88c22
Variable types: 0 continuous, 135 integer (135 binary)
Coefficient statistics:
  Matrix range     [1e+00, 3e+00]
  Objective range  [1e+00, 1e+00]
  Bounds range     [1e+00, 1e+00]
  RHS range        [1e+00, 1e+00]
Found heuristic solution: objective -0.0000000
Presolve removed 2618 rows and 10 columns
Presolve time: 0.02s
Presolved: 127 rows, 125 columns, 1790 nonzeros
Variable types: 0 continuous, 125 integer (125 binary)

Root relaxation: objective 2.550000e+01, 36 iterations, 0.00 seconds (0.00 work units)

    Nodes    |    Current Node    |     Objective Bounds      |     Work
 Expl Unexpl |  Obj  Depth IntInf | Incumbent    BestBd   Gap | It/Node Time

     0     0   25.50000    0    5   -0.00000   25.50000      -     -    0s
H    0     0                      21.0000000   25.50000  21.4%     -    0s
     0     0   24.00000    0   10   21.00000   24.00000  14.3%     -    0s
H    0     0                      23.0000000   24.00000  4.35%     -    0s
     0     0   24.00000    0   10   23.00000   24.00000  4.35%     -    0s

Cutting planes:
  Gomory: 3
  Cover: 3
  MIR: 1
  GUB cover: 1

Explored 1 nodes (55 simplex iterations) in 0.03 seconds (0.02 work units)
Thread count was 12 (of 12 available processors)

Solution count 3: 23 21 -0 

Optimal solution found (tolerance 0.00e+00)
Best objective 2.300000000000e+01, best bound 2.300000000000e+01, gap 0.0000%

User-callback calls 247, time in user-callback 0.00 sec

Gurobi 9.5.0 (win64) logging started Mon Jun  6 20:02:34 2022

Set parameter LogFile to value "../results/logs/log_soc-dolphins_3_1_2022_06_06_20_02.log"
Set parameter LazyConstraints to value 1
Gurobi Optimizer version 9.5.0 build v9.5.0rc5 (win64)
Thread count: 6 physical cores, 12 logical processors, using up to 12 threads
Optimize a model with 2745 rows, 135 columns and 8580 nonzeros
Model fingerprint: 0xb6deaf46
Variable types: 0 continuous, 135 integer (135 binary)
Coefficient statistics:
  Matrix range     [1e+00, 3e+00]
  Objective range  [1e+00, 1e+00]
  Bounds range     [1e+00, 1e+00]
  RHS range        [1e+00, 1e+00]
Found heuristic solution: objective -0.0000000
Presolve removed 2617 rows and 10 columns
Presolve time: 0.02s
Presolved: 128 rows, 125 columns, 1822 nonzeros
Variable types: 0 continuous, 125 integer (125 binary)

Root relaxation: objective 2.550000e+01, 37 iterations, 0.00 seconds (0.00 work units)

    Nodes    |    Current Node    |     Objective Bounds      |     Work
 Expl Unexpl |  Obj  Depth IntInf | Incumbent    BestBd   Gap | It/Node Time

     0     0   25.50000    0    5   -0.00000   25.50000      -     -    0s
H    0     0                      21.0000000   25.50000  21.4%     -    0s
     0     0   24.00000    0   10   21.00000   24.00000  14.3%     -    0s
     0     0   23.50000    0    9   21.00000   23.50000  11.9%     -    0s
     0     0   23.50000    0    1   21.00000   23.50000  11.9%     -    0s
H    0     0                      23.0000000   23.50000  2.17%     -    0s
     0     0   23.50000    0    1   23.00000   23.50000  2.17%     -    0s

Explored 1 nodes (70 simplex iterations) in 0.04 seconds (0.02 work units)
Thread count was 12 (of 12 available processors)

Solution count 3: 23 21 -0 

Optimal solution found (tolerance 0.00e+00)
Best objective 2.300000000000e+01, best bound 2.300000000000e+01, gap 0.0000%

User-callback calls 254, time in user-callback 0.00 sec

Gurobi 9.5.0 (win64) logging started Mon Jun  6 20:02:36 2022

Set parameter LogFile to value "../results/logs/log_soc-dolphins_3_1_2022_06_06_20_02.log"
Set parameter LazyConstraints to value 1
Gurobi Optimizer version 9.5.0 build v9.5.0rc5 (win64)
Thread count: 6 physical cores, 12 logical processors, using up to 12 threads
Optimize a model with 2745 rows, 135 columns and 8580 nonzeros
Model fingerprint: 0x40d047fb
Variable types: 0 continuous, 135 integer (135 binary)
Coefficient statistics:
  Matrix range     [1e+00, 3e+00]
  Objective range  [1e+00, 1e+00]
  Bounds range     [1e+00, 1e+00]
  RHS range        [1e+00, 1e+00]
Found heuristic solution: objective -0.0000000
Presolve removed 2618 rows and 10 columns
Presolve time: 0.02s
Presolved: 127 rows, 125 columns, 1790 nonzeros
Variable types: 0 continuous, 125 integer (125 binary)

Root relaxation: objective 2.550000e+01, 37 iterations, 0.00 seconds (0.00 work units)

    Nodes    |    Current Node    |     Objective Bounds      |     Work
 Expl Unexpl |  Obj  Depth IntInf | Incumbent    BestBd   Gap | It/Node Time

     0     0   25.50000    0    5   -0.00000   25.50000      -     -    0s
H    0     0                      21.0000000   25.50000  21.4%     -    0s
     0     0   24.00000    0   10   21.00000   24.00000  14.3%     -    0s
H    0     0                      23.0000000   24.00000  4.35%     -    0s
     0     0   24.00000    0   10   23.00000   24.00000  4.35%     -    0s

Cutting planes:
  Gomory: 2
  Cover: 3
  MIR: 1
  GUB cover: 1

Explored 1 nodes (67 simplex iterations) in 0.03 seconds (0.02 work units)
Thread count was 12 (of 12 available processors)

Solution count 3: 23 21 -0 

Optimal solution found (tolerance 0.00e+00)
Best objective 2.300000000000e+01, best bound 2.300000000000e+01, gap 0.0000%

User-callback calls 246, time in user-callback 0.00 sec

Gurobi 9.5.0 (win64) logging started Mon Jun  6 20:02:38 2022

Set parameter LogFile to value "../results/logs/log_soc-dolphins_3_1_2022_06_06_20_02.log"
Set parameter LazyConstraints to value 1
Gurobi Optimizer version 9.5.0 build v9.5.0rc5 (win64)
Thread count: 6 physical cores, 12 logical processors, using up to 12 threads
Optimize a model with 2745 rows, 135 columns and 8580 nonzeros
Model fingerprint: 0xf449bf4f
Variable types: 0 continuous, 135 integer (135 binary)
Coefficient statistics:
  Matrix range     [1e+00, 3e+00]
  Objective range  [1e+00, 1e+00]
  Bounds range     [1e+00, 1e+00]
  RHS range        [1e+00, 1e+00]
Found heuristic solution: objective -0.0000000
Presolve removed 2618 rows and 10 columns
Presolve time: 0.02s
Presolved: 127 rows, 125 columns, 1790 nonzeros
Variable types: 0 continuous, 125 integer (125 binary)

Root relaxation: objective 2.550000e+01, 43 iterations, 0.00 seconds (0.00 work units)

    Nodes    |    Current Node    |     Objective Bounds      |     Work
 Expl Unexpl |  Obj  Depth IntInf | Incumbent    BestBd   Gap | It/Node Time

     0     0   25.50000    0    5   -0.00000   25.50000      -     -    0s
H    0     0                      21.0000000   25.50000  21.4%     -    0s
     0     0   23.71429    0   14   21.00000   23.71429  12.9%     -    0s
H    0     0                      23.0000000   23.71429  3.11%     -    0s

Cutting planes:
  Gomory: 3
  Cover: 2
  MIR: 1
  GUB cover: 1

Explored 1 nodes (66 simplex iterations) in 0.03 seconds (0.02 work units)
Thread count was 12 (of 12 available processors)

Solution count 3: 23 21 -0 

Optimal solution found (tolerance 0.00e+00)
Best objective 2.300000000000e+01, best bound 2.300000000000e+01, gap 0.0000%

User-callback calls 246, time in user-callback 0.00 sec

Gurobi 9.5.0 (win64) logging started Mon Jun  6 20:02:40 2022

Set parameter LogFile to value "../results/logs/log_soc-dolphins_3_1_2022_06_06_20_02.log"
Set parameter LazyConstraints to value 1
Gurobi Optimizer version 9.5.0 build v9.5.0rc5 (win64)
Thread count: 6 physical cores, 12 logical processors, using up to 12 threads
Optimize a model with 2745 rows, 135 columns and 8580 nonzeros
Model fingerprint: 0xe8bfa319
Variable types: 0 continuous, 135 integer (135 binary)
Coefficient statistics:
  Matrix range     [1e+00, 3e+00]
  Objective range  [1e+00, 1e+00]
  Bounds range     [1e+00, 1e+00]
  RHS range        [1e+00, 1e+00]
Found heuristic solution: objective -0.0000000
Presolve removed 2617 rows and 10 columns
Presolve time: 0.02s
Presolved: 128 rows, 125 columns, 1825 nonzeros
Variable types: 0 continuous, 125 integer (125 binary)

Root relaxation: objective 2.550000e+01, 39 iterations, 0.00 seconds (0.00 work units)

    Nodes    |    Current Node    |     Objective Bounds      |     Work
 Expl Unexpl |  Obj  Depth IntInf | Incumbent    BestBd   Gap | It/Node Time

     0     0   25.50000    0    5   -0.00000   25.50000      -     -    0s
H    0     0                      20.0000000   25.50000  27.5%     -    0s
     0     0   24.00000    0   10   20.00000   24.00000  20.0%     -    0s
H    0     0                      21.0000000   24.00000  14.3%     -    0s
H    0     0                      23.0000000   24.00000  4.35%     -    0s
     0     0     cutoff    0        23.00000   23.00000  0.00%     -    0s

Cutting planes:
  Gomory: 3
  Cover: 3
  MIR: 2
  GUB cover: 4
  Mod-K: 1

Explored 1 nodes (55 simplex iterations) in 0.03 seconds (0.02 work units)
Thread count was 12 (of 12 available processors)

Solution count 4: 23 21 20 -0 

Optimal solution found (tolerance 0.00e+00)
Best objective 2.300000000000e+01, best bound 2.300000000000e+01, gap 0.0000%

User-callback calls 255, time in user-callback 0.00 sec

Gurobi 9.5.0 (win64) logging started Mon Jun  6 20:02:42 2022

Set parameter LogFile to value "../results/logs/log_soc-dolphins_3_1_2022_06_06_20_02.log"
Set parameter LazyConstraints to value 1
Gurobi Optimizer version 9.5.0 build v9.5.0rc5 (win64)
Thread count: 6 physical cores, 12 logical processors, using up to 12 threads
Optimize a model with 2745 rows, 135 columns and 8580 nonzeros
Model fingerprint: 0x307c06db
Variable types: 0 continuous, 135 integer (135 binary)
Coefficient statistics:
  Matrix range     [1e+00, 3e+00]
  Objective range  [1e+00, 1e+00]
  Bounds range     [1e+00, 1e+00]
  RHS range        [1e+00, 1e+00]
Found heuristic solution: objective -0.0000000
Presolve removed 2617 rows and 10 columns
Presolve time: 0.02s
Presolved: 128 rows, 125 columns, 1823 nonzeros
Variable types: 0 continuous, 125 integer (125 binary)

Root relaxation: objective 2.550000e+01, 39 iterations, 0.00 seconds (0.00 work units)

    Nodes    |    Current Node    |     Objective Bounds      |     Work
 Expl Unexpl |  Obj  Depth IntInf | Incumbent    BestBd   Gap | It/Node Time

     0     0   25.50000    0    5   -0.00000   25.50000      -     -    0s
H    0     0                      21.0000000   25.50000  21.4%     -    0s
     0     0   24.00000    0   10   21.00000   24.00000  14.3%     -    0s
H    0     0                      23.0000000   24.00000  4.35%     -    0s
     0     0   24.00000    0   10   23.00000   24.00000  4.35%     -    0s

Cutting planes:
  Gomory: 3
  Cover: 3
  MIR: 1
  GUB cover: 1

Explored 1 nodes (56 simplex iterations) in 0.03 seconds (0.02 work units)
Thread count was 12 (of 12 available processors)

Solution count 3: 23 21 -0 

Optimal solution found (tolerance 0.00e+00)
Best objective 2.300000000000e+01, best bound 2.300000000000e+01, gap 0.0000%

User-callback calls 246, time in user-callback 0.00 sec

Gurobi 9.5.0 (win64) logging started Mon Jun  6 20:02:44 2022

Set parameter LogFile to value "../results/logs/log_soc-dolphins_3_1_2022_06_06_20_02.log"
Set parameter LazyConstraints to value 1
Gurobi Optimizer version 9.5.0 build v9.5.0rc5 (win64)
Thread count: 6 physical cores, 12 logical processors, using up to 12 threads
Optimize a model with 2745 rows, 135 columns and 8580 nonzeros
Model fingerprint: 0x78f6d99d
Variable types: 0 continuous, 135 integer (135 binary)
Coefficient statistics:
  Matrix range     [1e+00, 3e+00]
  Objective range  [1e+00, 1e+00]
  Bounds range     [1e+00, 1e+00]
  RHS range        [1e+00, 1e+00]
Found heuristic solution: objective -0.0000000
Presolve removed 2618 rows and 10 columns
Presolve time: 0.02s
Presolved: 127 rows, 125 columns, 1790 nonzeros
Variable types: 0 continuous, 125 integer (125 binary)

Root relaxation: objective 2.550000e+01, 36 iterations, 0.00 seconds (0.00 work units)

    Nodes    |    Current Node    |     Objective Bounds      |     Work
 Expl Unexpl |  Obj  Depth IntInf | Incumbent    BestBd   Gap | It/Node Time

     0     0   25.50000    0    5   -0.00000   25.50000      -     -    0s
H    0     0                      21.0000000   25.50000  21.4%     -    0s
     0     0   24.00000    0   10   21.00000   24.00000  14.3%     -    0s
     0     0   23.50000    0    9   21.00000   23.50000  11.9%     -    0s
     0     0   23.50000    0    1   21.00000   23.50000  11.9%     -    0s
H    0     0                      23.0000000   23.50000  2.17%     -    0s
     0     0   23.50000    0    1   23.00000   23.50000  2.17%     -    0s

Explored 1 nodes (69 simplex iterations) in 0.04 seconds (0.02 work units)
Thread count was 12 (of 12 available processors)

Solution count 3: 23 21 -0 

Optimal solution found (tolerance 0.00e+00)
Best objective 2.300000000000e+01, best bound 2.300000000000e+01, gap 0.0000%

User-callback calls 254, time in user-callback 0.00 sec
